10J3M/DAT/10J3MNTA-7.dat
10 3
24.7478 612.4536
25.312 640.6973
23.2463 540.3905
30.3663 922.1122
19.2161 369.2585
24.8848 619.2533
23.6867 561.0598
23.6827 560.8703
19.4036 376.4997
29.3297 860.2313
1515.7067