10J3M/SOL/10J3MNTA-7.sol
solution status: optimal solution found
objective value:                     74.3151481982966
x#1#1                               0.249725071849409 	(obj:0)
x#1#3                               0.750274928150591 	(obj:0)
x#2#1                                               1 	(obj:0)
x#3#1                                               1 	(obj:0)
x#4#3                               0.503005242156965 	(obj:0)
x#5#1                               0.556305083871076 	(obj:0)
x#5#2                               0.379841993175609 	(obj:0)
x#5#3                               0.063852922953315 	(obj:0)
x#7#2                               0.441718119030927 	(obj:0)
x#7#3                               0.558281880969073 	(obj:0)
x#8#3                                               1 	(obj:0)
x#9#2                                               1 	(obj:0)
x#10#2                                              1 	(obj:0)
z                                    74.3151481982966 	(obj:1)
